\ENCODING=ISO-8859-1
\Problem name: ilog.cplex

Minimize
 obj1: 95999 x1 + 96246 x2 + 99189 x3 + 105583 x4 + 100897 x5 + 105108 x6
       + 96827 x7 + 98539 x8 + 103862 x9 + 93304 x10 + 103448 x11 + 107254 x12
       + 108768 x13 + 91115 x14 + 108747 x15 + 93006 x16 + 99484 x17
       + 103433 x18 + 101702 x19 + 95442 x20 + 108767 x21 + 90953 x22
       + 99285 x23 + 107047 x24 + 109612 x25 + 106632 x26 + 90795 x27
       + 98440 x28 + 100515 x29 + 108885 x30 + 90256 x31 + 100446 x32
       + 90704 x33 + 90799 x34 + 91635 x35 + 106996 x36 + 106520 x37
       + 108123 x38 + 94686 x39 + 96700 x40 + 95951 x41 + 97864 x42 + 92785 x43
       + 100322 x44 + 104761 x45 + 94023 x46 + 108387 x47 + 106410 x48
       + 94678 x49 + 107346 x50 + 106605 x51 + 97979 x52 + 91803 x53
       + 101924 x54 + 92867 x55 + 109405 x56 + 91700 x57 + 93033 x58
       + 106765 x59 + 104603 x60 + 105053 x61 + 99206 x62 + 93495 x63
       + 100974 x64 + 99413 x65 + 109585 x66 + 105266 x67 + 101149 x68
       + 105203 x69 + 98746 x70 + 102126 x71 + 97736 x72 + 107453 x73
       + 98543 x74 + 96070 x75 + 102976 x76 + 109224 x77 + 95919 x78
       + 107426 x79 + 90969 x80 + 94542 x81 + 103994 x82 + 109089 x83
       + 108078 x84 + 105589 x85 + 95309 x86 + 99217 x87 + 91321 x88
       + 92850 x89 + 96506 x90 + 104205 x91 + 99974 x92 + 109453 x93
       + 108279 x94 + 101503 x95 + 97997 x96 + 109091 x97 + 99620 x98
       + 105367 x99 + 107853 x100 + 90677 x101 + 91172 x102 + 97676 x103
       + 109937 x104 + 92255 x105 + 108919 x106 + 90666 x107 + 106044 x108
       + 91769 x109 + 96526 x110 + 98769 x111 + 100172 x112 + 102853 x113
       + 102269 x114 + 92691 x115 + 95462 x116 + 100168 x117 + 104854 x118
       + 90460 x119 + 102173 x120 + 98328 x121 + 104348 x122 + 109587 x123
       + 99529 x124 + 102043 x125 + 92605 x126 + 109165 x127 + 94427 x128
       + 102528 x129 + 108174 x130 + 92747 x131 + 105477 x132 + 95363 x133
       + 108691 x134 + 94822 x135 + 97888 x136 + 96907 x137 + 102986 x138
       + 93933 x139 + 108001 x140 + 92524 x141 + 96349 x142 + 98615 x143
       + 99454 x144 + 103848 x145 + 101845 x146 + 100197 x147 + 106035 x148
       + 101377 x149 + 91716 x150 + 99543 x151 + 103330 x152 + 100450 x153
       + 105402 x154 + 109389 x155 + 109055 x156 + 101026 x157 + 108889 x158
       + 109111 x159 + 95479 x160 + 104643 x161 + 93843 x162 + 104544 x163
       + 106361 x164 + 105596 x165 + 94382 x166 + 101898 x167 + 105591 x168
       + 107561 x169 + 104365 x170 + 101899 x171 + 105021 x172 + 101795 x173
       + 98727 x174 + 97907 x175 + 104936 x176 + 98505 x177 + 98632 x178
       + 100110 x179 + 92203 x180 + 98341 x181 + 93826 x182 + 109660 x183
       + 103246 x184 + 102580 x185 + 96449 x186 + 96294 x187 + 109028 x188
       + 93452 x189 + 106050 x190 + 102603 x191 + 95146 x192 + 96513 x193
       + 94094 x194 + 108905 x195 + 94087 x196 + 95523 x197 + 94576 x198
       + 108867 x199 + 107716 x200 + 99734 x201 + 104726 x202 + 103502 x203
       + 100743 x204 + 100901 x205 + 104278 x206 + 98025 x207 + 90728 x208
       + 100199 x209 + 102426 x210 + 90905 x211 + 109536 x212 + 107443 x213
       + 103337 x214 + 96980 x215 + 95728 x216 + 102851 x217 + 93426 x218
       + 94634 x219 + 102496 x220 + 105033 x221 + 96627 x222 + 90822 x223
       + 91605 x224 + 107964 x225 + 97463 x226 + 97099 x227 + 90204 x228
       + 94438 x229 + 95993 x230 + 104849 x231 + 94410 x232 + 103793 x233
       + 93559 x234 + 98552 x235 + 91272 x236 + 107678 x237 + 93738 x238
       + 92182 x239 + 99006 x240 + 94306 x241 + 108124 x242 + 90654 x243
       + 96453 x244 + 105124 x245 + 107111 x246 + 95700 x247 + 92240 x248
       + 97441 x249 + 93533 x250 + 94922 x251 + 103992 x252 + 95395 x253
       + 94076 x254 + 101724 x255 + 97360 x256 + 105524 x257 + 90212 x258
       + 93216 x259 + 104995 x260 + 107955 x261 + 97336 x262 + 93544 x263
       + 95673 x264 + 90029 x265 + 91523 x266 + 100325 x267 + 108098 x268
       + 91179 x269 + 94413 x270 + 106120 x271 + 94019 x272 + 101762 x273
       + 98922 x274 + 98636 x275 + 97833 x276 + 93143 x277 + 96330 x278
       + 105664 x279 + 98010 x280 + 91465 x281 + 108747 x282 + 103801 x283
       + 109403 x284 + 103373 x285 + 100030 x286 + 93583 x287 + 94947 x288
       + 98362 x289 + 92951 x290 + 97905 x291 + 100236 x292 + 109475 x293
       + 100726 x294 + 105471 x295 + 105126 x296 + 91764 x297 + 106988 x298
       + 96489 x299 + 94158 x300 + 18815 x301 + 20408 x302 + 21071 x303
       + 20778 x304 + 21777 x305 + 20600 x306 + 20908 x307 + 19775 x308
       + 20387 x309 + 18577 x310 + 21139 x311 + 21498 x312 + 19254 x313
       + 19099 x314 + 21979 x315 + 19857 x316 + 20370 x317 + 21430 x318
       + 18170 x319 + 21166 x320 + 20258 x321 + 20516 x322 + 19787 x323
       + 20178 x324 + 19681 x325 + 19068 x326 + 20890 x327 + 20897 x328
       + 21765 x329 + 19338 x330 + 19980 x331 + 18232 x332 + 19950 x333
       + 20481 x334 + 20979 x335 + 19246 x336 + 18116 x337 + 20763 x338
       + 21557 x339 + 19892 x340 + 21561 x341 + 21671 x342 + 19172 x343
       + 20550 x344 + 21192 x345 + 21146 x346 + 18028 x347 + 21580 x348
       + 20350 x349 + 21700 x350 + 18435 x351 + 20276 x352 + 20150 x353
       + 18062 x354 + 21677 x355 + 21261 x356 + 21008 x357 + 20325 x358
       + 20501 x359 + 2723 x360
Subject To
 c1:   - x5 + x7 + x9 + x12 + x15 - x17 - x24 - x26 + x44 - x47  = 0
 c2:   - x65 + x67 + x69 + x72 + x75 - x77 - x84 - x86 + x104 - x107  = 0
 c3:   - x125 + x127 + x129 + x132 + x135 - x137 - x144 - x146 + x164 - x167
        = 1
 c4:   - x185 + x187 + x189 + x192 + x195 - x197 - x204 - x206 + x224 - x227
        = 0
 c5:   - x245 + x247 + x249 + x252 + x255 - x257 - x264 - x266 + x284 - x287
        = 0
 c6:   - x8 + x17 - x19 + x21 + x31 - x33 + x35  = 0
 c7:   - x68 + x77 - x79 + x81 + x91 - x93 + x95  = 0
 c8:   - x128 + x137 - x139 + x141 + x151 - x153 + x155  = 0
 c9:   - x188 + x197 - x199 + x201 + x211 - x213 + x215  = 1
 c10:  - x248 + x257 - x259 + x261 + x271 - x273 + x275  = 0
 c11:  x10 - x20 + x34 - x35 - x41 + x47 - x60  = 0
 c12:  x70 - x80 + x94 - x95 - x101 + x107 - x120  = 0
 c13:  x130 - x140 + x154 - x155 - x161 + x167 - x180  = 0
 c14:  x190 - x200 + x214 - x215 - x221 + x227 - x240  = 0
 c15:  x250 - x260 + x274 - x275 - x281 + x287 - x300  = 0
 c16:  - x6 - x9 + x24 - x27 - x28 - x38 - x51 + x55 - x56 - x58  = 0
 c17:  - x66 - x69 + x84 - x87 - x88 - x98 - x111 + x115 - x116 - x118  = 0
 c18:  - x126 - x129 + x144 - x147 - x148 - x158 - x171 + x175 - x176 - x178
        = 0
 c19:  - x186 - x189 + x204 - x207 - x208 - x218 - x231 + x235 - x236 - x238
        = 0
 c20:  - x246 - x249 + x264 - x267 - x268 - x278 - x291 + x295 - x296 - x298
        = 0
 c21:  - x1 - x3 + x29 - x31 - x37 + x45 + x49 - x54 + x60  = 0
 c22:  - x61 - x63 + x89 - x91 - x97 + x105 + x109 - x114 + x120  = 0
 c23:  - x121 - x123 + x149 - x151 - x157 + x165 + x169 - x174 + x180  = 0
 c24:  - x181 - x183 + x209 - x211 - x217 + x225 + x229 - x234 + x240  = 0
 c25:  - x241 - x243 + x269 - x271 - x277 + x285 + x289 - x294 + x300  = -1
 c26:  - x10 + x11 - x21 + x25 + x28 - x30 - x50 - x57 - x59  = 0
 c27:  - x70 + x71 - x81 + x85 + x88 - x90 - x110 - x117 - x119  = 0
 c28:  - x130 + x131 - x141 + x145 + x148 - x150 - x170 - x177 - x179  = 0
 c29:  - x190 + x191 - x201 + x205 + x208 - x210 - x230 - x237 - x239  = 0
 c30:  - x250 + x251 - x261 + x265 + x268 - x270 - x290 - x297 - x299  = 0
 c31:  x2 + x8 - x34 - x46 + x48 - x55  = -1
 c32:  x62 + x68 - x94 - x106 + x108 - x115  = 0
 c33:  x122 + x128 - x154 - x166 + x168 - x175  = 0
 c34:  x182 + x188 - x214 - x226 + x228 - x235  = 0
 c35:  x242 + x248 - x274 - x286 + x288 - x295  = 1
 c36:  - x11 - x14 + x16 - x22 + x26 + x27 + x36 + x40 - x42 + x57  = 0
 c37:  - x71 - x74 + x76 - x82 + x86 + x87 + x96 + x100 - x102 + x117  = 0
 c38:  - x131 - x134 + x136 - x142 + x146 + x147 + x156 + x160 - x162 + x177
        = 0
 c39:  - x191 - x194 + x196 - x202 + x206 + x207 + x216 + x220 - x222 + x237
        = 0
 c40:  - x251 - x254 + x256 - x262 + x266 + x267 + x276 + x280 - x282 + x297
        = 0
 c41:  x1 + x4 + x6 - x16 + x19 + x22 - x23 - x32 - x44 + x59  = 0
 c42:  x61 + x64 + x66 - x76 + x79 + x82 - x83 - x92 - x104 + x119  = -1
 c43:  x121 + x124 + x126 - x136 + x139 + x142 - x143 - x152 - x164 + x179  = 0
 c44:  x181 + x184 + x186 - x196 + x199 + x202 - x203 - x212 - x224 + x239  = 0
 c45:  x241 + x244 + x246 - x256 + x259 + x262 - x263 - x272 - x284 + x299  = 0
 c46:  - x12 - x13 + x32 + x38 - x40 + x41 - x43 - x45  = 0
 c47:  - x72 - x73 + x92 + x98 - x100 + x101 - x103 - x105  = 0
 c48:  - x132 - x133 + x152 + x158 - x160 + x161 - x163 - x165  = 0
 c49:  - x192 - x193 + x212 + x218 - x220 + x221 - x223 - x225  = 0
 c50:  - x252 - x253 + x272 + x278 - x280 + x281 - x283 - x285  = 0
 c51:  x33 - x39 + x43 - x48 - x49 - x53  = 0
 c52:  x93 - x99 + x103 - x108 - x109 - x113  = 0
 c53:  x153 - x159 + x163 - x168 - x169 - x173  = 0
 c54:  x213 - x219 + x223 - x228 - x229 - x233  = 0
 c55:  x273 - x279 + x283 - x288 - x289 - x293  = 0
 c56:  x3 - x18 + x23 - x29 - x52 + x56  = 0
 c57:  x63 - x78 + x83 - x89 - x112 + x116  = 0
 c58:  x123 - x138 + x143 - x149 - x172 + x176  = 0
 c59:  x183 - x198 + x203 - x209 - x232 + x236  = 0
 c60:  x243 - x258 + x263 - x269 - x292 + x296  = 0
 c61:  - x2 - x15 + x18 + x20 + x30 - x36 + x39 + x51 + x54  = 1
 c62:  - x62 - x75 + x78 + x80 + x90 - x96 + x99 + x111 + x114  = 0
 c63:  - x122 - x135 + x138 + x140 + x150 - x156 + x159 + x171 + x174  = 0
 c64:  - x182 - x195 + x198 + x200 + x210 - x216 + x219 + x231 + x234  = -1
 c65:  - x242 - x255 + x258 + x260 + x270 - x276 + x279 + x291 + x294  = 0
 c66:  - x4 + x5 - x7 + x13 + x37 + x42 + x46 + x53 + x58  = 0
 c67:  - x64 + x65 - x67 + x73 + x97 + x102 + x106 + x113 + x118  = 1
 c68:  - x124 + x125 - x127 + x133 + x157 + x162 + x166 + x173 + x178  = -1
 c69:  - x184 + x185 - x187 + x193 + x217 + x222 + x226 + x233 + x238  = 0
 c70:  - x244 + x245 - x247 + x253 + x277 + x282 + x286 + x293 + x298  = 0
 c71:  x14 - x25 + x50 + x52  = 0
 c72:  x74 - x85 + x110 + x112  = 0
 c73:  x134 - x145 + x170 + x172  = 0
 c74:  x194 - x205 + x230 + x232  = 0
 c75:  x254 - x265 + x290 + x292  = 0
 c76:  4 x1 + 4 x61 + 4 x121 + 4 x181 + 4 x241 - 2 x301 <= 0
 c77:  4 x2 + 4 x62 + 4 x122 + 4 x182 + 4 x242 - 2 x302 <= 0
 c78:  4 x3 + 4 x63 + 4 x123 + 4 x183 + 4 x243 - 2 x303 <= 0
 c79:  4 x4 + 4 x64 + 4 x124 + 4 x184 + 4 x244 - 2 x304 <= 0
 c80:  4 x5 + 4 x65 + 4 x125 + 4 x185 + 4 x245 - 2 x305 <= 0
 c81:  4 x6 + 4 x66 + 4 x126 + 4 x186 + 4 x246 - 2 x306 <= 0
 c82:  4 x7 + 4 x67 + 4 x127 + 4 x187 + 4 x247 - 2 x307 <= 0
 c83:  4 x8 + 4 x68 + 4 x128 + 4 x188 + 4 x248 - 2 x308 <= 0
 c84:  4 x9 + 4 x69 + 4 x129 + 4 x189 + 4 x249 - 2 x309 <= 0
 c85:  4 x10 + 4 x70 + 4 x130 + 4 x190 + 4 x250 - 2 x310 <= 0
 c86:  4 x11 + 4 x71 + 4 x131 + 4 x191 + 4 x251 - 2 x311 <= 0
 c87:  4 x12 + 4 x72 + 4 x132 + 4 x192 + 4 x252 - 2 x312 <= 0
 c88:  4 x13 + 4 x73 + 4 x133 + 4 x193 + 4 x253 - 2 x313 <= 0
 c89:  4 x14 + 4 x74 + 4 x134 + 4 x194 + 4 x254 - 2 x314 <= 0
 c90:  4 x15 + 4 x75 + 4 x135 + 4 x195 + 4 x255 - 2 x315 <= 0
 c91:  4 x16 + 4 x76 + 4 x136 + 4 x196 + 4 x256 - 2 x316 <= 0
 c92:  4 x17 + 4 x77 + 4 x137 + 4 x197 + 4 x257 - 2 x317 <= 0
 c93:  4 x18 + 4 x78 + 4 x138 + 4 x198 + 4 x258 - 2 x318 <= 0
 c94:  4 x19 + 4 x79 + 4 x139 + 4 x199 + 4 x259 - 2 x319 <= 0
 c95:  4 x20 + 4 x80 + 4 x140 + 4 x200 + 4 x260 - 2 x320 <= 0
 c96:  4 x21 + 4 x81 + 4 x141 + 4 x201 + 4 x261 - 2 x321 <= 0
 c97:  4 x22 + 4 x82 + 4 x142 + 4 x202 + 4 x262 - 2 x322 <= 0
 c98:  4 x23 + 4 x83 + 4 x143 + 4 x203 + 4 x263 - 2 x323 <= 0
 c99:  4 x24 + 4 x84 + 4 x144 + 4 x204 + 4 x264 - 2 x324 <= 0
 c100: 4 x25 + 4 x85 + 4 x145 + 4 x205 + 4 x265 - 2 x325 <= 0
 c101: 4 x26 + 4 x86 + 4 x146 + 4 x206 + 4 x266 - 2 x326 <= 0
 c102: 4 x27 + 4 x87 + 4 x147 + 4 x207 + 4 x267 - 2 x327 <= 0
 c103: 4 x28 + 4 x88 + 4 x148 + 4 x208 + 4 x268 - 2 x328 <= 0
 c104: 4 x29 + 4 x89 + 4 x149 + 4 x209 + 4 x269 - 2 x329 <= 0
 c105: 4 x30 + 4 x90 + 4 x150 + 4 x210 + 4 x270 - 2 x330 <= 0
 c106: 4 x31 + 4 x91 + 4 x151 + 4 x211 + 4 x271 - 2 x331 <= 0
 c107: 4 x32 + 4 x92 + 4 x152 + 4 x212 + 4 x272 - 2 x332 <= 0
 c108: 4 x33 + 4 x93 + 4 x153 + 4 x213 + 4 x273 - 2 x333 <= 0
 c109: 4 x34 + 4 x94 + 4 x154 + 4 x214 + 4 x274 - 2 x334 <= 0
 c110: 4 x35 + 4 x95 + 4 x155 + 4 x215 + 4 x275 - 2 x335 <= 0
 c111: 4 x36 + 4 x96 + 4 x156 + 4 x216 + 4 x276 - 2 x336 <= 0
 c112: 4 x37 + 4 x97 + 4 x157 + 4 x217 + 4 x277 - 2 x337 <= 0
 c113: 4 x38 + 4 x98 + 4 x158 + 4 x218 + 4 x278 - 2 x338 <= 0
 c114: 4 x39 + 4 x99 + 4 x159 + 4 x219 + 4 x279 - 2 x339 <= 0
 c115: 4 x40 + 4 x100 + 4 x160 + 4 x220 + 4 x280 - 2 x340 <= 0
 c116: 4 x41 + 4 x101 + 4 x161 + 4 x221 + 4 x281 - 2 x341 <= 0
 c117: 4 x42 + 4 x102 + 4 x162 + 4 x222 + 4 x282 - 2 x342 <= 0
 c118: 4 x43 + 4 x103 + 4 x163 + 4 x223 + 4 x283 - 2 x343 <= 0
 c119: 4 x44 + 4 x104 + 4 x164 + 4 x224 + 4 x284 - 2 x344 <= 0
 c120: 4 x45 + 4 x105 + 4 x165 + 4 x225 + 4 x285 - 2 x345 <= 0
 c121: 4 x46 + 4 x106 + 4 x166 + 4 x226 + 4 x286 - 2 x346 <= 0
 c122: 4 x47 + 4 x107 + 4 x167 + 4 x227 + 4 x287 - 2 x347 <= 0
 c123: 4 x48 + 4 x108 + 4 x168 + 4 x228 + 4 x288 - 2 x348 <= 0
 c124: 4 x49 + 4 x109 + 4 x169 + 4 x229 + 4 x289 - 2 x349 <= 0
 c125: 4 x50 + 4 x110 + 4 x170 + 4 x230 + 4 x290 - 2 x350 <= 0
 c126: 4 x51 + 4 x111 + 4 x171 + 4 x231 + 4 x291 - 2 x351 <= 0
 c127: 4 x52 + 4 x112 + 4 x172 + 4 x232 + 4 x292 - 2 x352 <= 0
 c128: 4 x53 + 4 x113 + 4 x173 + 4 x233 + 4 x293 - 2 x353 <= 0
 c129: 4 x54 + 4 x114 + 4 x174 + 4 x234 + 4 x294 - 2 x354 <= 0
 c130: 4 x55 + 4 x115 + 4 x175 + 4 x235 + 4 x295 - 2 x355 <= 0
 c131: 4 x56 + 4 x116 + 4 x176 + 4 x236 + 4 x296 - 2 x356 <= 0
 c132: 4 x57 + 4 x117 + 4 x177 + 4 x237 + 4 x297 - 2 x357 <= 0
 c133: 4 x58 + 4 x118 + 4 x178 + 4 x238 + 4 x298 - 2 x358 <= 0
 c134: 4 x59 + 4 x119 + 4 x179 + 4 x239 + 4 x299 - 2 x359 <= 0
 c135: 4 x60 + 4 x120 + 4 x180 + 4 x240 + 4 x300 - 2 x360 <= 0
Bounds
 0 <= x1 <= 1
 0 <= x2 <= 1
 0 <= x3 <= 1
 0 <= x4 <= 1
 0 <= x5 <= 1
 0 <= x6 <= 1
 0 <= x7 <= 1
 0 <= x8 <= 1
 0 <= x9 <= 1
 0 <= x10 <= 1
 0 <= x11 <= 1
 0 <= x12 <= 1
 0 <= x13 <= 1
 0 <= x14 <= 1
 0 <= x15 <= 1
 0 <= x16 <= 1
 0 <= x17 <= 1
 0 <= x18 <= 1
 0 <= x19 <= 1
 0 <= x20 <= 1
 0 <= x21 <= 1
 0 <= x22 <= 1
 0 <= x23 <= 1
 0 <= x24 <= 1
 0 <= x25 <= 1
 0 <= x26 <= 1
 0 <= x27 <= 1
 0 <= x28 <= 1
 0 <= x29 <= 1
 0 <= x30 <= 1
 0 <= x31 <= 1
 0 <= x32 <= 1
 0 <= x33 <= 1
 0 <= x34 <= 1
 0 <= x35 <= 1
 0 <= x36 <= 1
 0 <= x37 <= 1
 0 <= x38 <= 1
 0 <= x39 <= 1
 0 <= x40 <= 1
 0 <= x41 <= 1
 0 <= x42 <= 1
 0 <= x43 <= 1
 0 <= x44 <= 1
 0 <= x45 <= 1
 0 <= x46 <= 1
 0 <= x47 <= 1
 0 <= x48 <= 1
 0 <= x49 <= 1
 0 <= x50 <= 1
 0 <= x51 <= 1
 0 <= x52 <= 1
 0 <= x53 <= 1
 0 <= x54 <= 1
 0 <= x55 <= 1
 0 <= x56 <= 1
 0 <= x57 <= 1
 0 <= x58 <= 1
 0 <= x59 <= 1
 0 <= x60 <= 1
 0 <= x61 <= 1
 0 <= x62 <= 1
 0 <= x63 <= 1
 0 <= x64 <= 1
 0 <= x65 <= 1
 0 <= x66 <= 1
 0 <= x67 <= 1
 0 <= x68 <= 1
 0 <= x69 <= 1
 0 <= x70 <= 1
 0 <= x71 <= 1
 0 <= x72 <= 1
 0 <= x73 <= 1
 0 <= x74 <= 1
 0 <= x75 <= 1
 0 <= x76 <= 1
 0 <= x77 <= 1
 0 <= x78 <= 1
 0 <= x79 <= 1
 0 <= x80 <= 1
 0 <= x81 <= 1
 0 <= x82 <= 1
 0 <= x83 <= 1
 0 <= x84 <= 1
 0 <= x85 <= 1
 0 <= x86 <= 1
 0 <= x87 <= 1
 0 <= x88 <= 1
 0 <= x89 <= 1
 0 <= x90 <= 1
 0 <= x91 <= 1
 0 <= x92 <= 1
 0 <= x93 <= 1
 0 <= x94 <= 1
 0 <= x95 <= 1
 0 <= x96 <= 1
 0 <= x97 <= 1
 0 <= x98 <= 1
 0 <= x99 <= 1
 0 <= x100 <= 1
 0 <= x101 <= 1
 0 <= x102 <= 1
 0 <= x103 <= 1
 0 <= x104 <= 1
 0 <= x105 <= 1
 0 <= x106 <= 1
 0 <= x107 <= 1
 0 <= x108 <= 1
 0 <= x109 <= 1
 0 <= x110 <= 1
 0 <= x111 <= 1
 0 <= x112 <= 1
 0 <= x113 <= 1
 0 <= x114 <= 1
 0 <= x115 <= 1
 0 <= x116 <= 1
 0 <= x117 <= 1
 0 <= x118 <= 1
 0 <= x119 <= 1
 0 <= x120 <= 1
 0 <= x121 <= 1
 0 <= x122 <= 1
 0 <= x123 <= 1
 0 <= x124 <= 1
 0 <= x125 <= 1
 0 <= x126 <= 1
 0 <= x127 <= 1
 0 <= x128 <= 1
 0 <= x129 <= 1
 0 <= x130 <= 1
 0 <= x131 <= 1
 0 <= x132 <= 1
 0 <= x133 <= 1
 0 <= x134 <= 1
 0 <= x135 <= 1
 0 <= x136 <= 1
 0 <= x137 <= 1
 0 <= x138 <= 1
 0 <= x139 <= 1
 0 <= x140 <= 1
 0 <= x141 <= 1
 0 <= x142 <= 1
 0 <= x143 <= 1
 0 <= x144 <= 1
 0 <= x145 <= 1
 0 <= x146 <= 1
 0 <= x147 <= 1
 0 <= x148 <= 1
 0 <= x149 <= 1
 0 <= x150 <= 1
 0 <= x151 <= 1
 0 <= x152 <= 1
 0 <= x153 <= 1
 0 <= x154 <= 1
 0 <= x155 <= 1
 0 <= x156 <= 1
 0 <= x157 <= 1
 0 <= x158 <= 1
 0 <= x159 <= 1
 0 <= x160 <= 1
 0 <= x161 <= 1
 0 <= x162 <= 1
 0 <= x163 <= 1
 0 <= x164 <= 1
 0 <= x165 <= 1
 0 <= x166 <= 1
 0 <= x167 <= 1
 0 <= x168 <= 1
 0 <= x169 <= 1
 0 <= x170 <= 1
 0 <= x171 <= 1
 0 <= x172 <= 1
 0 <= x173 <= 1
 0 <= x174 <= 1
 0 <= x175 <= 1
 0 <= x176 <= 1
 0 <= x177 <= 1
 0 <= x178 <= 1
 0 <= x179 <= 1
 0 <= x180 <= 1
 0 <= x181 <= 1
 0 <= x182 <= 1
 0 <= x183 <= 1
 0 <= x184 <= 1
 0 <= x185 <= 1
 0 <= x186 <= 1
 0 <= x187 <= 1
 0 <= x188 <= 1
 0 <= x189 <= 1
 0 <= x190 <= 1
 0 <= x191 <= 1
 0 <= x192 <= 1
 0 <= x193 <= 1
 0 <= x194 <= 1
 0 <= x195 <= 1
 0 <= x196 <= 1
 0 <= x197 <= 1
 0 <= x198 <= 1
 0 <= x199 <= 1
 0 <= x200 <= 1
 0 <= x201 <= 1
 0 <= x202 <= 1
 0 <= x203 <= 1
 0 <= x204 <= 1
 0 <= x205 <= 1
 0 <= x206 <= 1
 0 <= x207 <= 1
 0 <= x208 <= 1
 0 <= x209 <= 1
 0 <= x210 <= 1
 0 <= x211 <= 1
 0 <= x212 <= 1
 0 <= x213 <= 1
 0 <= x214 <= 1
 0 <= x215 <= 1
 0 <= x216 <= 1
 0 <= x217 <= 1
 0 <= x218 <= 1
 0 <= x219 <= 1
 0 <= x220 <= 1
 0 <= x221 <= 1
 0 <= x222 <= 1
 0 <= x223 <= 1
 0 <= x224 <= 1
 0 <= x225 <= 1
 0 <= x226 <= 1
 0 <= x227 <= 1
 0 <= x228 <= 1
 0 <= x229 <= 1
 0 <= x230 <= 1
 0 <= x231 <= 1
 0 <= x232 <= 1
 0 <= x233 <= 1
 0 <= x234 <= 1
 0 <= x235 <= 1
 0 <= x236 <= 1
 0 <= x237 <= 1
 0 <= x238 <= 1
 0 <= x239 <= 1
 0 <= x240 <= 1
 0 <= x241 <= 1
 0 <= x242 <= 1
 0 <= x243 <= 1
 0 <= x244 <= 1
 0 <= x245 <= 1
 0 <= x246 <= 1
 0 <= x247 <= 1
 0 <= x248 <= 1
 0 <= x249 <= 1
 0 <= x250 <= 1
 0 <= x251 <= 1
 0 <= x252 <= 1
 0 <= x253 <= 1
 0 <= x254 <= 1
 0 <= x255 <= 1
 0 <= x256 <= 1
 0 <= x257 <= 1
 0 <= x258 <= 1
 0 <= x259 <= 1
 0 <= x260 <= 1
 0 <= x261 <= 1
 0 <= x262 <= 1
 0 <= x263 <= 1
 0 <= x264 <= 1
 0 <= x265 <= 1
 0 <= x266 <= 1
 0 <= x267 <= 1
 0 <= x268 <= 1
 0 <= x269 <= 1
 0 <= x270 <= 1
 0 <= x271 <= 1
 0 <= x272 <= 1
 0 <= x273 <= 1
 0 <= x274 <= 1
 0 <= x275 <= 1
 0 <= x276 <= 1
 0 <= x277 <= 1
 0 <= x278 <= 1
 0 <= x279 <= 1
 0 <= x280 <= 1
 0 <= x281 <= 1
 0 <= x282 <= 1
 0 <= x283 <= 1
 0 <= x284 <= 1
 0 <= x285 <= 1
 0 <= x286 <= 1
 0 <= x287 <= 1
 0 <= x288 <= 1
 0 <= x289 <= 1
 0 <= x290 <= 1
 0 <= x291 <= 1
 0 <= x292 <= 1
 0 <= x293 <= 1
 0 <= x294 <= 1
 0 <= x295 <= 1
 0 <= x296 <= 1
 0 <= x297 <= 1
 0 <= x298 <= 1
 0 <= x299 <= 1
 0 <= x300 <= 1
 0 <= x301 <= 1
 0 <= x302 <= 1
 0 <= x303 <= 1
 0 <= x304 <= 1
 0 <= x305 <= 1
 0 <= x306 <= 1
 0 <= x307 <= 1
 0 <= x308 <= 1
 0 <= x309 <= 1
 0 <= x310 <= 1
 0 <= x311 <= 1
 0 <= x312 <= 1
 0 <= x313 <= 1
 0 <= x314 <= 1
 0 <= x315 <= 1
 0 <= x316 <= 1
 0 <= x317 <= 1
 0 <= x318 <= 1
 0 <= x319 <= 1
 0 <= x320 <= 1
 0 <= x321 <= 1
 0 <= x322 <= 1
 0 <= x323 <= 1
 0 <= x324 <= 1
 0 <= x325 <= 1
 0 <= x326 <= 1
 0 <= x327 <= 1
 0 <= x328 <= 1
 0 <= x329 <= 1
 0 <= x330 <= 1
 0 <= x331 <= 1
 0 <= x332 <= 1
 0 <= x333 <= 1
 0 <= x334 <= 1
 0 <= x335 <= 1
 0 <= x336 <= 1
 0 <= x337 <= 1
 0 <= x338 <= 1
 0 <= x339 <= 1
 0 <= x340 <= 1
 0 <= x341 <= 1
 0 <= x342 <= 1
 0 <= x343 <= 1
 0 <= x344 <= 1
 0 <= x345 <= 1
 0 <= x346 <= 1
 0 <= x347 <= 1
 0 <= x348 <= 1
 0 <= x349 <= 1
 0 <= x350 <= 1
 0 <= x351 <= 1
 0 <= x352 <= 1
 0 <= x353 <= 1
 0 <= x354 <= 1
 0 <= x355 <= 1
 0 <= x356 <= 1
 0 <= x357 <= 1
 0 <= x358 <= 1
 0 <= x359 <= 1
 0 <= x360 <= 1
Binaries
 x301  x302  x303  x304  x305  x306  x307  x308  x309  x310  x311  x312  x313 
 x314  x315  x316  x317  x318  x319  x320  x321  x322  x323  x324  x325  x326 
 x327  x328  x329  x330  x331  x332  x333  x334  x335  x336  x337  x338  x339 
 x340  x341  x342  x343  x344  x345  x346  x347  x348  x349  x350  x351  x352 
 x353  x354  x355  x356  x357  x358  x359  x360 
End
